Route #1: 1 18 6 7 13 28 10 14 1 
Route #2: 1 5 4 26 22 24 23 31 25 1 
Route #3: 1 19 17 21 27 32 1 
Route #4: 1 1 20 15 9 3 8 16 1 
Route #5: 1 2 29 11 30 1 
Route #6: 1 12 1 

Cost 1062.34
Time 0.1676


 * Another infos *

 Iterations: 33 Time: 0.1676 sec - 0.0028 min - 0.0000 horas
0.0000 h 0.0028 min
Problem dimension: 33
